NAME : mr16
COMMENT : 16-city problem (DISC)
TYPE : TSP
DIMENSION : 16
EDGE_WEIGHT_TYPE : EUC_2D
NODE_COORD_SECTION
1 23 70
2 53 47
3 56 22
4 5 45
5 37 13
6 23 92
7 69 57
8 17 48
9 8 32
10 95 5
11 57 76
12 8 55
13 73 77
14 16 80
15 26 8
16 30 66
EOF
